
;this file is automatically generated: Mon Nov 02 10:43:04 CST 2020

;declarations generated

(declare-fun oclExcludes ( Int Int) Bool)
(declare-fun Cardinality ( Int) Int)
(declare-fun type_26a22648_b48d_4e7e_a280_c590b093ff98_Class10 ( Int) Bool)
(declare-fun type_26a22648_b48d_4e7e_a280_c590b093ff98_Class11 ( Int) Bool)
(declare-fun type_26a22648_b48d_4e7e_a280_c590b093ff98_Class14 ( Int) Bool)
(declare-fun type_26a22648_b48d_4e7e_a280_c590b093ff98_Class15 ( Int) Bool)
(declare-fun type_26a22648_b48d_4e7e_a280_c590b093ff98_Class12 ( Int) Bool)
(declare-fun type_26a22648_b48d_4e7e_a280_c590b093ff98_Class13 ( Int) Bool)
(declare-fun type_26a22648_b48d_4e7e_a280_c590b093ff98_Class16 ( Int) Bool)
(declare-fun type_26a22648_b48d_4e7e_a280_c590b093ff98_Class17 ( Int) Bool)
(declare-fun oclSelect ( Int Bool) Int)
(declare-fun type_26a22648_b48d_4e7e_a280_c590b093ff98_Class0 ( Int) Bool)
(declare-fun type_26a22648_b48d_4e7e_a280_c590b093ff98_Class2 ( Int) Bool)
(declare-fun type_26a22648_b48d_4e7e_a280_c590b093ff98_Class1 ( Int) Bool)
(declare-fun type_26a22648_b48d_4e7e_a280_c590b093ff98_Class4 ( Int) Bool)
(declare-fun type_26a22648_b48d_4e7e_a280_c590b093ff98_Class3 ( Int) Bool)
(declare-fun type_26a22648_b48d_4e7e_a280_c590b093ff98_Class6 ( Int) Bool)
(declare-fun type_26a22648_b48d_4e7e_a280_c590b093ff98_Class5 ( Int) Bool)
(declare-fun type_26a22648_b48d_4e7e_a280_c590b093ff98_Class8 ( Int) Bool)
(declare-fun type_26a22648_b48d_4e7e_a280_c590b093ff98_Class7 ( Int) Bool)
(declare-fun type_26a22648_b48d_4e7e_a280_c590b093ff98_Class9 ( Int) Bool)
(declare-fun Enum0 ( Int) Int)
(declare-fun Enum1 ( Int) Int)
(declare-fun Enum2 ( Int) Int)
(declare-fun container_ ( Int) Int)
(declare-fun obj_10b53e7a_be03_4512_854a_f10425be7561 ( Int) Int)
(declare-fun class2_Class2IntAttr1 ( Int) Int)
(declare-fun oclIncludes ( Int Int) Bool)
(declare-fun ObjAt ( Int Int) Int)
(declare-fun class2_Class2BoolAttr0 ( Int) Bool)

;formula(s) generated
(assert (forall ((p Int)) (=> ( type_26a22648_b48d_4e7e_a280_c590b093ff98_Class2 p )  (and (>= ( Enum0 ( obj_10b53e7a_be03_4512_854a_f10425be7561 p )  )  0) (<= ( Enum0 ( obj_10b53e7a_be03_4512_854a_f10425be7561 p )  )  4)))))
(assert (! (forall ((v Int)) (=> ( type_26a22648_b48d_4e7e_a280_c590b093ff98_Class2 v )  (or ( class2_Class2BoolAttr0 ( obj_10b53e7a_be03_4512_854a_f10425be7561 v )  )  (and (forall ((v Int)) (=> ( type_26a22648_b48d_4e7e_a280_c590b093ff98_Class2 v )  (= ( class2_Class2IntAttr1 ( obj_10b53e7a_be03_4512_854a_f10425be7561 v )  )  0))) (forall ((v Int)) (=> ( type_26a22648_b48d_4e7e_a280_c590b093ff98_Class2 v )  (not (= ( Enum0 ( obj_10b53e7a_be03_4512_854a_f10425be7561 v )  )  1) ))))))):named l0))
(assert (! (or (forall ((v Int)) (=> ( type_26a22648_b48d_4e7e_a280_c590b093ff98_Class2 v )  (> ( class2_Class2IntAttr1 ( obj_10b53e7a_be03_4512_854a_f10425be7561 v )  )  11))) (forall ((v Int)) (=> ( type_26a22648_b48d_4e7e_a280_c590b093ff98_Class2 v )  (not (= ( Enum0 ( obj_10b53e7a_be03_4512_854a_f10425be7561 v )  )  4) )))):named l1))
(assert (! (exists ((o Int)) ( type_26a22648_b48d_4e7e_a280_c590b093ff98_Class0 ( obj_10b53e7a_be03_4512_854a_f10425be7561 o )  ) ):named c0))
(assert (! (exists ((o Int)) ( type_26a22648_b48d_4e7e_a280_c590b093ff98_Class1 ( obj_10b53e7a_be03_4512_854a_f10425be7561 o )  ) ):named c1))
(assert (! (exists ((o Int)) (and (and ( type_26a22648_b48d_4e7e_a280_c590b093ff98_Class10 ( obj_10b53e7a_be03_4512_854a_f10425be7561 o )  )  ( type_26a22648_b48d_4e7e_a280_c590b093ff98_Class14 ( obj_10b53e7a_be03_4512_854a_f10425be7561 o )  ) ) ( type_26a22648_b48d_4e7e_a280_c590b093ff98_Class16 ( obj_10b53e7a_be03_4512_854a_f10425be7561 o )  ) )):named c2))
(assert (! (exists ((o Int)) ( type_26a22648_b48d_4e7e_a280_c590b093ff98_Class11 ( obj_10b53e7a_be03_4512_854a_f10425be7561 o )  ) ):named c3))
(assert (! (exists ((o Int)) ( type_26a22648_b48d_4e7e_a280_c590b093ff98_Class12 ( obj_10b53e7a_be03_4512_854a_f10425be7561 o )  ) ):named c4))
(assert (! (exists ((o Int)) ( type_26a22648_b48d_4e7e_a280_c590b093ff98_Class13 ( obj_10b53e7a_be03_4512_854a_f10425be7561 o )  ) ):named c5))
(assert (! (exists ((o Int)) ( type_26a22648_b48d_4e7e_a280_c590b093ff98_Class14 ( obj_10b53e7a_be03_4512_854a_f10425be7561 o )  ) ):named c6))
(assert (! (exists ((o Int)) ( type_26a22648_b48d_4e7e_a280_c590b093ff98_Class15 ( obj_10b53e7a_be03_4512_854a_f10425be7561 o )  ) ):named c7))
(assert (! (exists ((o Int)) (and ( type_26a22648_b48d_4e7e_a280_c590b093ff98_Class16 ( obj_10b53e7a_be03_4512_854a_f10425be7561 o )  )  ( type_26a22648_b48d_4e7e_a280_c590b093ff98_Class14 ( obj_10b53e7a_be03_4512_854a_f10425be7561 o )  ) )):named c8))
(assert (! (exists ((o Int)) ( type_26a22648_b48d_4e7e_a280_c590b093ff98_Class17 ( obj_10b53e7a_be03_4512_854a_f10425be7561 o )  ) ):named c9))
(assert (! (exists ((o Int)) ( type_26a22648_b48d_4e7e_a280_c590b093ff98_Class2 ( obj_10b53e7a_be03_4512_854a_f10425be7561 o )  ) ):named c10))
(assert (! (exists ((o Int)) ( type_26a22648_b48d_4e7e_a280_c590b093ff98_Class3 ( obj_10b53e7a_be03_4512_854a_f10425be7561 o )  ) ):named c11))
(assert (! (exists ((o Int)) ( type_26a22648_b48d_4e7e_a280_c590b093ff98_Class4 ( obj_10b53e7a_be03_4512_854a_f10425be7561 o )  ) ):named c12))
(assert (! (exists ((o Int)) ( type_26a22648_b48d_4e7e_a280_c590b093ff98_Class5 ( obj_10b53e7a_be03_4512_854a_f10425be7561 o )  ) ):named c13))
(assert (! (exists ((o Int)) ( type_26a22648_b48d_4e7e_a280_c590b093ff98_Class6 ( obj_10b53e7a_be03_4512_854a_f10425be7561 o )  ) ):named c14))
(assert (! (exists ((o Int)) ( type_26a22648_b48d_4e7e_a280_c590b093ff98_Class7 ( obj_10b53e7a_be03_4512_854a_f10425be7561 o )  ) ):named c15))
(assert (! (exists ((o Int)) ( type_26a22648_b48d_4e7e_a280_c590b093ff98_Class8 ( obj_10b53e7a_be03_4512_854a_f10425be7561 o )  ) ):named c16))
(assert (! (exists ((o Int)) ( type_26a22648_b48d_4e7e_a280_c590b093ff98_Class9 ( obj_10b53e7a_be03_4512_854a_f10425be7561 o )  ) ):named c17))

 ;end of formula 